proyfinal/src/viki/013/andrea/andrea-localstore/experimentInOfficeAgust.take6/worker_6/9a800d0c-4cdf-4a54-a9fa-f91841c31112.als.cnf.out
Reading from standard input... Use '--help' for help.
============================[ Problem Statistics ]=============================
|                                                                             |
|  Number of variables:         87638                                         |
|  Number of clauses:          161767                                         |
|  Parse time:                   0.04 s                                       |
|                                                                             |
============================[ Search Statistics ]==============================
| Conflicts |          ORIGINAL         |          LEARNT          | Progress |
|           |    Vars  Clauses Literals |    Limit  Clauses Lit/Cl |          |
===============================================================================
|       100 |   62464   105682   263513 |    38750      100     37 | 28.725 % |
|       250 |   62442   105590   263302 |    42625      245     77 | 28.750 % |
|       475 |   62406   105557   263218 |    46887      466     68 | 28.791 % |
|       812 |   62388   105425   262866 |    51576      784     65 | 28.812 % |
|      1318 |   62388   105392   262778 |    56733     1281     71 | 28.812 % |
|      2077 |   62388   105392   262778 |    62407     2040     77 | 28.812 % |
|      3216 |   62388   105392   262778 |    68648     3179     80 | 28.812 % |
|      4924 |   62388   105392   262778 |    75512     4887     80 | 28.812 % |
|      7486 |   62388   105392   262778 |    83064     7449     85 | 28.812 % |
|     11330 |   62388   105392   262778 |    91370    11293     95 | 28.812 % |
|     17096 |   62331   105124   262154 |   100507    17045    103 | 28.877 % |
===============================================================================
restarts              : 64
conflicts             : 19293          (7229 /sec)
decisions             : 61093          (0.00 % random) (22890 /sec)
propagations          : 24525413       (9189003 /sec)
conflict literals     : 1923210        (50.61 % deleted)
Memory used           : 43.32 MB
CPU time              : 2.669 s

UNSATISFIABLE
